104461
81,74,10,15,37,1,29,34,27,78,5,60,14,7,82,52,58,67,43,21,4,18,23,30,47,20,70,65,19,66,75,35,25,69,13,61,79,44,45,53,72,63,28,9,0,12,17,36,64,49,3,62,38,51,40,77,68,24,41,54,22,11,2,56,42,33,48,46,59,80,71,50,32,26,6,55,16,73,57,76,8,31,39,81